Route #1: 1 1 40 39 38 37 36 35 34 33 32 31 30 29 28 27 26 25 24 23 22 21 20 19 18 17 16 15 14 13 12 11 10 9 8 7 5 1 
Route #2: 1 2 3 4 6 57 58 59 60 61 62 63 64 65 66 67 68 69 70 71 72 73 74 75 76 77 78 79 80 41 42 43 44 45 46 1 
Route #3: 1 47 48 49 50 51 52 53 54 55 56 96 95 94 93 92 91 90 89 88 87 86 85 84 83 82 81 120 119 118 117 116 115 114 152 112 113 1 
Route #4: 1 121 122 123 124 125 126 127 128 129 130 131 132 133 134 135 136 137 138 139 140 141 142 143 144 145 146 147 148 149 150 151 111 110 109 1 
Route #5: 1 160 159 158 157 156 155 154 153 193 194 195 196 197 198 199 200 161 162 163 164 165 166 167 168 169 170 171 172 173 174 175 216 217 178 177 176 1 
Route #6: 1 108 107 187 188 189 190 191 192 232 231 230 229 228 227 226 225 264 224 186 185 184 183 182 181 180 179 97 98 99 100 101 102 103 104 105 106 1 
Route #7: 1 201 202 203 204 205 206 207 208 209 210 211 212 213 214 215 255 295 296 256 257 297 298 258 218 219 220 221 222 223 263 303 304 305 265 1 
Route #8: 1 240 239 238 237 236 235 234 233 273 313 314 274 275 315 316 276 277 317 318 278 279 319 320 280 241 281 282 242 243 283 284 244 245 285 286 288 1 
Route #9: 1 246 287 247 248 249 289 290 250 251 291 292 252 253 293 294 254 259 299 300 260 261 301 302 262 266 306 307 267 268 308 309 269 270 272 1 
Route #10: 1 271 310 311 312 1 

Cost 9518.57
Time 0.4332


 * Other infos *

 Iterations: 321 Time: 0.4332 sec - 0.0072 min - 0.0001 horas
0.0000 h 0.0072 min
Problem dimension: 321
